nbreVehiculeElectrique = 4;
identifiantVE = [2, 4, 1, 3];
autonomie = [15, 12, 12, 15];
niveauBatterie = [8, 2, 6, 5];

nbreVehiculeThermique = 4;
identifiantVT = [44, 22, 33, 11];

nbreTournee = 5;
distanceTournee = [100, 160, 70, 60, 180];

lesVehicules = {2, 4, 1, 3, 44, 22, 33, 11};


